NAME          DCAP_2_4_3_500_SS452
ROWS
 N  OBJ
 L  CON1
 L  CON2
 L  CON3
 L  CON4
 L  CON5
 L  CON6
 L  CON7
 L  CON8
 L  CON9
 L  CON10
 L  CON11
 L  CON12
 E  CON13
 E  CON14
 E  CON15
 E  CON16
 E  CON17
 E  CON18
 E  CON19
 E  CON20
 E  CON21
 E  CON22
 E  CON23
 E  CON24
COLUMNS
    x[1,1]    OBJ       6.180167      CON1      1.000000    
    x[1,1]    CON7      -1.000000     CON8      -1.000000   
    x[1,1]    CON9      -1.000000   
    x[1,2]    OBJ       6.563535      CON2      1.000000    
    x[1,2]    CON8      -1.000000     CON9      -1.000000   
    x[1,3]    OBJ       7.443064      CON3      1.000000    
    x[1,3]    CON9      -1.000000   
    x[2,1]    OBJ       6.732585      CON4      1.000000    
    x[2,1]    CON10     -1.000000     CON11     -1.000000   
    x[2,1]    CON12     -1.000000   
    x[2,2]    OBJ       5.039546      CON5      1.000000    
    x[2,2]    CON11     -1.000000     CON12     -1.000000   
    x[2,3]    OBJ       6.054841      CON6      1.000000    
    x[2,3]    CON12     -1.000000   
    MARKER    'MARKER'                'INTORG'
    u[1,1]    OBJ       48.076654     CON1      -1.000000   
    u[1,2]    OBJ       20.066487     CON2      -1.000000   
    u[1,3]    OBJ       32.230043     CON3      -1.000000   
    u[2,1]    OBJ       49.996186     CON4      -1.000000   
    u[2,2]    OBJ       49.466655     CON5      -1.000000   
    u[2,3]    OBJ       27.484319     CON6      -1.000000   
    y[1,1,1]  OBJ       8.180717      CON7      0.992141    
    y[1,1,1]  CON13     1.000000    
    y[1,1,2]  OBJ       6.779153      CON8      0.647398    
    y[1,1,2]  CON14     1.000000    
    y[1,1,3]  OBJ       5.103148      CON9      0.940977    
    y[1,1,3]  CON15     1.000000    
    y[1,2,1]  OBJ       5.367059      CON7      1.111379    
    y[1,2,1]  CON16     1.000000    
    y[1,2,2]  OBJ       8.831845      CON8      1.221386    
    y[1,2,2]  CON17     1.000000    
    y[1,2,3]  OBJ       5.812865      CON9      1.181119    
    y[1,2,3]  CON18     1.000000    
    y[1,3,1]  OBJ       9.203457      CON7      1.283437    
    y[1,3,1]  CON19     1.000000    
    y[1,3,2]  OBJ       7.134000      CON8      1.479325    
    y[1,3,2]  CON20     1.000000    
    y[1,3,3]  OBJ       7.771547      CON9      1.199128    
    y[1,3,3]  CON21     1.000000    
    y[1,4,1]  OBJ       7.765684      CON7      0.981605    
    y[1,4,1]  CON22     1.000000    
    y[1,4,2]  OBJ       8.794201      CON8      1.044635    
    y[1,4,2]  CON23     1.000000    
    y[1,4,3]  OBJ       7.896798      CON9      0.782570    
    y[1,4,3]  CON24     1.000000    
    y[2,1,1]  OBJ       9.301386      CON10     0.992141    
    y[2,1,1]  CON13     1.000000    
    y[2,1,2]  OBJ       6.331662      CON11     0.647398    
    y[2,1,2]  CON14     1.000000    
    y[2,1,3]  OBJ       8.396790      CON12     0.940977    
    y[2,1,3]  CON15     1.000000    
    y[2,2,1]  OBJ       6.759061      CON10     1.111379    
    y[2,2,1]  CON16     1.000000    
    y[2,2,2]  OBJ       5.780241      CON11     1.221386    
    y[2,2,2]  CON17     1.000000    
    y[2,2,3]  OBJ       5.151271      CON12     1.181119    
    y[2,2,3]  CON18     1.000000    
    y[2,3,1]  OBJ       8.722055      CON10     1.283437    
    y[2,3,1]  CON19     1.000000    
    y[2,3,2]  OBJ       9.550658      CON11     1.479325    
    y[2,3,2]  CON20     1.000000    
    y[2,3,3]  OBJ       8.051870      CON12     1.199128    
    y[2,3,3]  CON21     1.000000    
    y[2,4,1]  OBJ       8.306364      CON10     0.981605    
    y[2,4,1]  CON22     1.000000    
    y[2,4,2]  OBJ       5.851768      CON11     1.044635    
    y[2,4,2]  CON23     1.000000    
    y[2,4,3]  OBJ       6.454722      CON12     0.782570    
    y[2,4,3]  CON24     1.000000    
    z[1,1]    OBJ       668.450693    CON13     1.000000    
    z[1,2]    OBJ       782.631670    CON14     1.000000    
    z[1,3]    OBJ       641.611569    CON15     1.000000    
    z[2,1]    OBJ       920.094366    CON16     1.000000    
    z[2,2]    OBJ       523.155235    CON17     1.000000    
    z[2,3]    OBJ       565.899342    CON18     1.000000    
    z[3,1]    OBJ       923.622136    CON19     1.000000    
    z[3,2]    OBJ       831.489363    CON20     1.000000    
    z[3,3]    OBJ       637.815220    CON21     1.000000    
    z[4,1]    OBJ       838.448161    CON22     1.000000    
    z[4,2]    OBJ       938.608901    CON23     1.000000    
    z[4,3]    OBJ       996.651774    CON24     1.000000    
    MARKER    'MARKER'                 'INTEND'
RHS
    RHS       CON1      -0.000000     CON2      -0.000000   
    RHS       CON3      -0.000000     CON4      -0.000000   
    RHS       CON5      -0.000000     CON6      -0.000000   
    RHS       CON7      -0.000000     CON8      -0.000000   
    RHS       CON9      -0.000000     CON10     -0.000000   
    RHS       CON11     -0.000000     CON12     -0.000000   
    RHS       CON13     1.000000      CON14     1.000000    
    RHS       CON15     1.000000      CON16     1.000000    
    RHS       CON17     1.000000      CON18     1.000000    
    RHS       CON19     1.000000      CON20     1.000000    
    RHS       CON21     1.000000      CON22     1.000000    
    RHS       CON23     1.000000      CON24     1.000000    
BOUNDS
 BV BOUND     u[1,1]  
 BV BOUND     u[1,2]  
 BV BOUND     u[1,3]  
 BV BOUND     u[2,1]  
 BV BOUND     u[2,2]  
 BV BOUND     u[2,3]  
 BV BOUND     y[1,1,1]
 BV BOUND     y[1,1,2]
 BV BOUND     y[1,1,3]
 BV BOUND     y[1,2,1]
 BV BOUND     y[1,2,2]
 BV BOUND     y[1,2,3]
 BV BOUND     y[1,3,1]
 BV BOUND     y[1,3,2]
 BV BOUND     y[1,3,3]
 BV BOUND     y[1,4,1]
 BV BOUND     y[1,4,2]
 BV BOUND     y[1,4,3]
 BV BOUND     y[2,1,1]
 BV BOUND     y[2,1,2]
 BV BOUND     y[2,1,3]
 BV BOUND     y[2,2,1]
 BV BOUND     y[2,2,2]
 BV BOUND     y[2,2,3]
 BV BOUND     y[2,3,1]
 BV BOUND     y[2,3,2]
 BV BOUND     y[2,3,3]
 BV BOUND     y[2,4,1]
 BV BOUND     y[2,4,2]
 BV BOUND     y[2,4,3]
 BV BOUND     z[1,1]  
 BV BOUND     z[1,2]  
 BV BOUND     z[1,3]  
 BV BOUND     z[2,1]  
 BV BOUND     z[2,2]  
 BV BOUND     z[2,3]  
 BV BOUND     z[3,1]  
 BV BOUND     z[3,2]  
 BV BOUND     z[3,3]  
 BV BOUND     z[4,1]  
 BV BOUND     z[4,2]  
 BV BOUND     z[4,3]  
ENDATA
